120 150
100
100
100
98
98
98
97
96
94
94
92
92
90
90
88
88
86
86
85
85
84
84
84
83
83
83
83
82
82
81
80
79
79
79
79
78
78
77
76
76
74
74
74
74
73
73
72
71
71
70
70
70
69
69
69
68
67
67
67
67
66
66
66
65
64
64
63
63
62
62
59
59
58
56
56
56
56
55
55
55
54
54
54
50
49
49
49
49
48
46
45
44
43
42
42
42
41
41
40
40
39
38
38
36
36
35
35
35
35
35
34
33
33
33
32
31
31
31
31
30
